c 
c U(n,d) graph
c graph gen seed     : 8997
c number of vertices : 70
c max number of edges: 2415
c Euclidean distance : 0.400000
c data structure     : sparse
c
c           Graph Stats
c number of vertices  : 70
c nonisolated vertices: 70
c number of edges     : 815
c edge density        : 0.337474
c max degree          : 35
c avg degree          : 23.29
c min degree          : 12
p col 70 815
e 1 67
e 1 65
e 1 60
e 1 56
e 1 55
e 1 54
e 1 52
e 1 51
e 1 45
e 1 44
e 1 42
e 1 39
e 1 38
e 1 30
e 1 28
e 1 27
e 1 25
e 1 21
e 1 17
e 1 14
e 1 12
e 1 11
e 1 8
e 1 6
e 1 4
e 2 69
e 2 67
e 2 65
e 2 61
e 2 60
e 2 59
e 2 56
e 2 49
e 2 48
e 2 38
e 2 35
e 2 29
e 2 27
e 2 25
e 2 24
e 2 15
e 2 12
e 2 9
e 2 7
e 2 4
e 3 69
e 3 68
e 3 66
e 3 64
e 3 60
e 3 59
e 3 58
e 3 57
e 3 56
e 3 48
e 3 43
e 3 41
e 3 38
e 3 37
e 3 33
e 3 31
e 3 25
e 3 19
e 3 16
e 3 10
e 4 69
e 4 67
e 4 65
e 4 60
e 4 56
e 4 51
e 4 49
e 4 45
e 4 44
e 4 39
e 4 38
e 4 29
e 4 27
e 4 25
e 4 17
e 4 15
e 4 14
e 4 12
e 4 9
e 4 7
e 4 6
e 5 70
e 5 63
e 5 53
e 5 47
e 5 46
e 5 40
e 5 36
e 5 34
e 5 23
e 5 22
e 5 20
e 5 13
e 5 11
e 5 8
e 6 70
e 6 63
e 6 62
e 6 60
e 6 55
e 6 54
e 6 53
e 6 52
e 6 51
e 6 46
e 6 45
e 6 44
e 6 42
e 6 39
e 6 36
e 6 30
e 6 28
e 6 25
e 6 23
e 6 21
e 6 20
e 6 17
e 6 14
e 6 13
e 6 12
e 6 11
e 6 8
e 7 69
e 7 67
e 7 65
e 7 61
e 7 59
e 7 49
e 7 48
e 7 38
e 7 35
e 7 29
e 7 27
e 7 24
e 7 15
e 7 12
e 7 9
e 8 70
e 8 63
e 8 62
e 8 55
e 8 54
e 8 53
e 8 52
e 8 51
e 8 47
e 8 46
e 8 45
e 8 44
e 8 42
e 8 39
e 8 36
e 8 34
e 8 30
e 8 28
e 8 23
e 8 21
e 8 20
e 8 17
e 8 13
e 8 11
e 9 69
e 9 67
e 9 65
e 9 61
e 9 59
e 9 49
e 9 48
e 9 38
e 9 35
e 9 29
e 9 27
e 9 24
e 9 15
e 10 70
e 10 69
e 10 68
e 10 66
e 10 64
e 10 62
e 10 60
e 10 59
e 10 58
e 10 57
e 10 56
e 10 50
e 10 48
e 10 43
e 10 41
e 10 37
e 10 33
e 10 32
e 10 31
e 10 26
e 10 25
e 10 22
e 10 19
e 10 18
e 10 16
e 11 70
e 11 63
e 11 62
e 11 60
e 11 55
e 11 54
e 11 53
e 11 52
e 11 51
e 11 47
e 11 46
e 11 45
e 11 44
e 11 40
e 11 39
e 11 37
e 11 36
e 11 34
e 11 32
e 11 30
e 11 28
e 11 25
e 11 23
e 11 22
e 11 20
e 11 18
e 11 17
e 11 13
e 12 69
e 12 67
e 12 65
e 12 60
e 12 56
e 12 55
e 12 52
e 12 51
e 12 49
e 12 45
e 12 44
e 12 43
e 12 39
e 12 38
e 12 30
e 12 28
e 12 27
e 12 25
e 12 17
e 12 15
e 12 14
e 13 70
e 13 63
e 13 62
e 13 55
e 13 54
e 13 53
e 13 52
e 13 51
e 13 47
e 13 46
e 13 45
e 13 44
e 13 42
e 13 39
e 13 36
e 13 30
e 13 28
e 13 23
e 13 21
e 13 20
e 13 17
e 14 55
e 14 54
e 14 51
e 14 45
e 14 44
e 14 42
e 14 39
e 14 28
e 14 21
e 14 17
e 15 69
e 15 67
e 15 65
e 15 61
e 15 60
e 15 59
e 15 56
e 15 49
e 15 48
e 15 43
e 15 38
e 15 35
e 15 29
e 15 27
e 15 25
e 15 24
e 16 70
e 16 69
e 16 68
e 16 66
e 16 64
e 16 62
e 16 60
e 16 58
e 16 57
e 16 56
e 16 50
e 16 43
e 16 41
e 16 37
e 16 34
e 16 33
e 16 32
e 16 31
e 16 26
e 16 25
e 16 22
e 16 19
e 16 18
e 17 70
e 17 65
e 17 63
e 17 62
e 17 60
e 17 56
e 17 55
e 17 54
e 17 52
e 17 51
e 17 46
e 17 45
e 17 44
e 17 43
e 17 42
e 17 39
e 17 38
e 17 37
e 17 32
e 17 30
e 17 28
e 17 27
e 17 25
e 17 23
e 17 20
e 18 70
e 18 66
e 18 63
e 18 62
e 18 58
e 18 57
e 18 53
e 18 52
e 18 50
e 18 47
e 18 46
e 18 43
e 18 41
e 18 40
e 18 37
e 18 34
e 18 33
e 18 32
e 18 31
e 18 30
e 18 26
e 18 22
e 19 68
e 19 66
e 19 64
e 19 58
e 19 57
e 19 41
e 19 33
e 19 31
e 19 26
e 20 70
e 20 63
e 20 62
e 20 55
e 20 54
e 20 53
e 20 52
e 20 51
e 20 47
e 20 46
e 20 45
e 20 36
e 20 34
e 20 30
e 20 28
e 20 23
e 20 21
e 21 55
e 21 54
e 21 51
e 21 45
e 21 44
e 21 42
e 21 28
e 22 70
e 22 66
e 22 63
e 22 62
e 22 57
e 22 53
e 22 52
e 22 50
e 22 47
e 22 46
e 22 40
e 22 37
e 22 34
e 22 32
e 22 30
e 22 26
e 22 23
e 23 70
e 23 63
e 23 62
e 23 55
e 23 53
e 23 52
e 23 51
e 23 47
e 23 46
e 23 45
e 23 40
e 23 39
e 23 36
e 23 34
e 23 32
e 23 30
e 23 28
e 24 67
e 24 65
e 24 61
e 24 59
e 24 49
e 24 38
e 24 35
e 24 29
e 24 27
e 25 69
e 25 65
e 25 62
e 25 60
e 25 59
e 25 56
e 25 52
e 25 51
e 25 48
e 25 45
e 25 44
e 25 43
e 25 39
e 25 38
e 25 37
e 25 32
e 25 30
e 25 27
e 26 70
e 26 66
e 26 58
e 26 57
e 26 50
e 26 41
e 26 40
e 26 37
e 26 34
e 26 33
e 26 32
e 26 31
e 27 69
e 27 67
e 27 65
e 27 61
e 27 60
e 27 59
e 27 56
e 27 51
e 27 49
e 27 45
e 27 44
e 27 39
e 27 38
e 27 35
e 27 29
e 28 63
e 28 62
e 28 55
e 28 54
e 28 52
e 28 51
e 28 46
e 28 45
e 28 44
e 28 42
e 28 39
e 28 36
e 28 30
e 29 69
e 29 67
e 29 65
e 29 61
e 29 59
e 29 56
e 29 49
e 29 48
e 29 38
e 29 35
e 30 70
e 30 65
e 30 63
e 30 62
e 30 60
e 30 56
e 30 55
e 30 54
e 30 53
e 30 52
e 30 51
e 30 47
e 30 46
e 30 45
e 30 44
e 30 43
e 30 39
e 30 37
e 30 36
e 30 34
e 30 32
e 31 68
e 31 66
e 31 64
e 31 58
e 31 57
e 31 50
e 31 43
e 31 41
e 31 37
e 31 33
e 31 32
e 32 70
e 32 66
e 32 63
e 32 62
e 32 60
e 32 58
e 32 57
e 32 56
e 32 53
e 32 52
e 32 50
e 32 47
e 32 46
e 32 43
e 32 41
e 32 40
e 32 39
e 32 37
e 32 34
e 33 69
e 33 68
e 33 66
e 33 64
e 33 59
e 33 58
e 33 57
e 33 56
e 33 48
e 33 43
e 33 41
e 33 37
e 34 70
e 34 66
e 34 63
e 34 62
e 34 53
e 34 52
e 34 50
e 34 47
e 34 46
e 34 40
e 34 37
e 34 36
e 35 69
e 35 67
e 35 65
e 35 61
e 35 59
e 35 49
e 35 48
e 35 38
e 36 70
e 36 63
e 36 62
e 36 55
e 36 54
e 36 53
e 36 52
e 36 51
e 36 47
e 36 46
e 36 40
e 37 70
e 37 69
e 37 68
e 37 66
e 37 65
e 37 64
e 37 63
e 37 62
e 37 60
e 37 59
e 37 58
e 37 57
e 37 56
e 37 52
e 37 50
e 37 48
e 37 43
e 37 41
e 37 39
e 37 38
e 38 69
e 38 68
e 38 67
e 38 65
e 38 61
e 38 60
e 38 59
e 38 56
e 38 49
e 38 48
e 38 45
e 38 44
e 38 43
e 38 39
e 39 70
e 39 69
e 39 65
e 39 63
e 39 62
e 39 60
e 39 56
e 39 55
e 39 52
e 39 51
e 39 46
e 39 45
e 39 44
e 39 43
e 40 70
e 40 66
e 40 63
e 40 62
e 40 53
e 40 50
e 40 47
e 40 46
e 41 68
e 41 66
e 41 64
e 41 58
e 41 57
e 41 50
e 41 43
e 42 55
e 42 54
e 42 51
e 42 45
e 42 44
e 43 70
e 43 69
e 43 68
e 43 66
e 43 65
e 43 64
e 43 62
e 43 60
e 43 59
e 43 58
e 43 57
e 43 56
e 43 52
e 43 50
e 43 48
e 44 65
e 44 62
e 44 60
e 44 56
e 44 55
e 44 54
e 44 52
e 44 51
e 44 46
e 44 45
e 45 65
e 45 63
e 45 62
e 45 60
e 45 56
e 45 55
e 45 54
e 45 52
e 45 51
e 45 46
e 46 70
e 46 63
e 46 62
e 46 55
e 46 54
e 46 53
e 46 52
e 46 51
e 46 50
e 46 47
e 47 70
e 47 63
e 47 62
e 47 53
e 47 52
e 47 50
e 48 69
e 48 68
e 48 65
e 48 64
e 48 61
e 48 60
e 48 59
e 48 58
e 48 56
e 48 49
e 49 69
e 49 67
e 49 65
e 49 61
e 49 59
e 50 70
e 50 66
e 50 63
e 50 62
e 50 58
e 50 57
e 50 53
e 51 63
e 51 62
e 51 60
e 51 55
e 51 54
e 51 52
e 52 70
e 52 63
e 52 62
e 52 60
e 52 56
e 52 55
e 52 54
e 52 53
e 53 70
e 53 63
e 53 62
e 54 55
e 55 63
e 55 62
e 56 69
e 56 68
e 56 65
e 56 62
e 56 60
e 56 59
e 56 58
e 57 70
e 57 68
e 57 66
e 57 64
e 57 58
e 58 69
e 58 68
e 58 66
e 58 64
e 58 60
e 58 59
e 59 69
e 59 68
e 59 67
e 59 65
e 59 64
e 59 61
e 59 60
e 60 70
e 60 69
e 60 68
e 60 65
e 60 62
e 61 69
e 61 67
e 61 65
e 62 70
e 62 66
e 62 63
e 63 70
e 64 69
e 64 68
e 64 66
e 65 69
e 65 67
e 66 70
e 66 68
e 67 69
e 68 69
